c Reduced graph for games120_0 generated by Cyril Grelier
p edge 120 638
e 1 3
e 1 10
e 1 12
e 1 14
e 1 17
e 1 31
e 1 47
e 1 60
e 1 61
e 1 71
e 1 82
e 1 84
e 1 98
e 2 4
e 2 9
e 2 13
e 2 19
e 2 20
e 2 32
e 2 35
e 2 46
e 2 52
e 2 65
e 2 68
e 2 74
e 2 95
e 3 12
e 3 16
e 3 26
e 3 28
e 3 29
e 3 39
e 3 43
e 3 65
e 3 74
e 3 76
e 3 91
e 3 109
e 4 8
e 4 9
e 4 11
e 4 12
e 4 13
e 4 17
e 4 19
e 4 40
e 4 60
e 4 67
e 4 70
e 4 80
e 5 6
e 5 20
e 5 23
e 5 24
e 5 33
e 5 41
e 5 44
e 5 45
e 5 51
e 5 53
e 5 58
e 5 70
e 5 76
e 6 14
e 6 37
e 6 50
e 6 51
e 6 59
e 6 63
e 6 64
e 6 79
e 6 83
e 6 94
e 6 114
e 7 18
e 7 30
e 7 34
e 7 36
e 7 43
e 7 73
e 7 86
e 7 92
e 7 99
e 7 101
e 7 105
e 7 110
e 8 13
e 8 17
e 8 18
e 8 20
e 8 27
e 8 40
e 8 44
e 8 45
e 8 60
e 8 67
e 8 70
e 9 12
e 9 21
e 9 22
e 9 25
e 9 27
e 9 35
e 9 47
e 9 49
e 9 55
e 9 85
e 10 31
e 10 48
e 10 55
e 10 61
e 10 71
e 10 80
e 10 82
e 10 84
e 10 94
e 10 98
e 10 119
e 11 21
e 11 22
e 11 25
e 11 27
e 11 33
e 11 46
e 11 47
e 11 49
e 11 50
e 11 55
e 11 85
e 12 19
e 12 20
e 12 25
e 12 33
e 12 52
e 12 60
e 12 85
e 12 120
e 13 17
e 13 24
e 13 40
e 13 44
e 13 47
e 13 60
e 13 67
e 13 70
e 13 80
e 14 19
e 14 20
e 14 50
e 14 59
e 14 61
e 14 63
e 14 64
e 14 79
e 14 83
e 14 94
e 15 19
e 15 25
e 15 28
e 15 48
e 15 57
e 15 66
e 15 68
e 15 87
e 15 89
e 15 96
e 15 97
e 15 117
e 16 19
e 16 26
e 16 29
e 16 36
e 16 37
e 16 62
e 16 65
e 16 69
e 16 90
e 16 91
e 16 114
e 17 18
e 17 21
e 17 40
e 17 44
e 17 60
e 17 67
e 17 70
e 17 85
e 18 41
e 18 42
e 18 56
e 18 60
e 18 72
e 18 90
e 18 102
e 18 107
e 18 109
e 19 35
e 19 46
e 19 52
e 19 54
e 19 68
e 19 74
e 20 21
e 20 31
e 20 46
e 20 50
e 20 52
e 20 53
e 20 54
e 21 25
e 21 27
e 21 36
e 21 47
e 21 49
e 21 55
e 21 82
e 21 85
e 22 25
e 22 26
e 22 27
e 22 43
e 22 47
e 22 49
e 22 55
e 22 71
e 22 85
e 22 99
e 23 24
e 23 33
e 23 40
e 23 44
e 23 45
e 23 51
e 23 58
e 23 59
e 23 76
e 23 113
e 23 117
e 24 42
e 24 45
e 24 50
e 24 51
e 24 53
e 24 56
e 24 58
e 24 76
e 24 98
e 25 27
e 25 39
e 25 47
e 25 55
e 25 67
e 25 85
e 26 29
e 26 39
e 26 54
e 26 62
e 26 65
e 26 69
e 26 72
e 26 91
e 26 117
e 27 47
e 27 49
e 27 55
e 27 74
e 27 101
e 28 31
e 28 48
e 28 57
e 28 66
e 28 87
e 28 89
e 28 96
e 28 97
e 28 120
e 29 32
e 29 37
e 29 39
e 29 43
e 29 62
e 29 72
e 29 91
e 29 106
e 30 34
e 30 73
e 30 82
e 30 86
e 30 92
e 30 99
e 30 101
e 30 105
e 30 110
e 30 117
e 31 61
e 31 71
e 31 80
e 31 82
e 31 84
e 31 90
e 31 98
e 32 36
e 32 37
e 32 39
e 32 54
e 32 62
e 32 63
e 32 83
e 32 106
e 32 114
e 33 45
e 33 51
e 33 53
e 33 58
e 33 76
e 33 95
e 33 120
e 34 36
e 34 37
e 34 73
e 34 86
e 34 87
e 34 92
e 34 99
e 34 101
e 34 110
e 35 43
e 35 46
e 35 52
e 35 68
e 35 74
e 35 95
e 35 105
e 35 112
e 36 38
e 36 54
e 36 68
e 36 73
e 36 90
e 36 92
e 37 39
e 37 43
e 37 54
e 37 65
e 37 69
e 37 91
e 38 54
e 38 57
e 38 62
e 38 69
e 38 74
e 38 106
e 38 108
e 38 114
e 38 117
e 38 119
e 39 43
e 39 59
e 39 65
e 39 69
e 39 106
e 40 44
e 40 70
e 40 71
e 40 79
e 40 80
e 40 94
e 41 42
e 41 44
e 41 56
e 41 58
e 41 71
e 41 72
e 41 102
e 41 107
e 41 109
e 42 56
e 42 72
e 42 76
e 42 98
e 42 102
e 42 107
e 42 109
e 42 113
e 43 65
e 43 69
e 43 87
e 43 91
e 44 53
e 44 60
e 44 67
e 44 80
e 45 51
e 45 53
e 45 58
e 45 70
e 45 74
e 45 76
e 46 52
e 46 68
e 46 74
e 46 90
e 46 95
e 46 120
e 47 49
e 47 66
e 47 85
e 48 57
e 48 66
e 48 69
e 48 87
e 48 89
e 48 96
e 48 97
e 48 108
e 49 55
e 49 63
e 49 85
e 49 96
e 49 119
e 50 59
e 50 63
e 50 64
e 50 79
e 50 83
e 50 94
e 51 53
e 51 58
e 51 72
e 51 76
e 51 109
e 52 61
e 52 68
e 52 74
e 52 90
e 52 110
e 53 58
e 53 67
e 53 76
e 53 102
e 54 57
e 54 91
e 54 106
e 54 108
e 55 58
e 55 82
e 55 85
e 56 58
e 56 72
e 56 99
e 56 102
e 56 107
e 56 109
e 56 119
e 57 62
e 57 68
e 57 74
e 57 92
e 57 97
e 57 108
e 58 76
e 59 63
e 59 64
e 59 79
e 59 83
e 59 94
e 59 113
e 60 67
e 60 70
e 60 80
e 61 67
e 61 71
e 61 82
e 61 84
e 61 98
e 61 113
e 62 69
e 62 90
e 62 97
e 62 106
e 62 114
e 63 64
e 63 79
e 63 83
e 63 89
e 63 94
e 64 70
e 64 71
e 64 79
e 64 83
e 64 84
e 64 94
e 65 69
e 65 83
e 65 89
e 65 95
e 66 69
e 66 87
e 66 89
e 66 96
e 66 97
e 66 102
e 66 108
e 67 70
e 67 80
e 68 73
e 68 90
e 68 108
e 69 91
e 70 80
e 71 82
e 71 84
e 71 98
e 72 102
e 72 105
e 72 107
e 72 109
e 73 86
e 73 92
e 73 99
e 73 101
e 73 105
e 73 110
e 75 77
e 75 78
e 75 88
e 75 100
e 75 103
e 75 104
e 75 111
e 75 112
e 75 115
e 75 116
e 77 78
e 77 81
e 77 88
e 77 93
e 77 100
e 77 103
e 77 104
e 77 111
e 77 118
e 78 88
e 78 93
e 78 100
e 78 103
e 78 104
e 78 111
e 78 116
e 78 118
e 79 83
e 79 94
e 79 107
e 80 107
e 81 93
e 81 95
e 81 100
e 81 103
e 81 104
e 81 112
e 81 115
e 81 116
e 81 118
e 82 84
e 82 98
e 83 94
e 84 91
e 84 98
e 84 113
e 86 92
e 86 99
e 86 101
e 86 110
e 86 119
e 86 120
e 87 89
e 87 96
e 87 97
e 87 108
e 88 93
e 88 100
e 88 103
e 88 104
e 88 111
e 88 112
e 88 116
e 89 95
e 89 96
e 89 97
e 90 106
e 90 113
e 91 105
e 92 99
e 92 101
e 92 110
e 93 95
e 93 111
e 93 112
e 93 115
e 93 116
e 93 118
e 95 96
e 95 120
e 96 97
e 96 108
e 97 108
e 98 119
e 99 101
e 99 110
e 100 103
e 100 104
e 100 111
e 100 118
e 101 110
e 102 107
e 102 109
e 103 104
e 103 111
e 103 115
e 104 111
e 104 115
e 105 117
e 105 119
e 105 120
e 106 113
e 106 114
e 107 109
e 111 112
e 112 115
e 112 116
e 112 118
e 113 114
e 113 117
e 114 117
e 114 119
e 115 116
e 115 118
e 116 118
